NAME: instance_861
TYPE: TSP
DIMENSION: 20
EDGE_WEIGHT_TYPE: EUC_2D
NODE_COORD_SECTION
0 52.34 12.12
1 12.82 51.44
2 71.23 80.25
3 30.48 58.96
4 99.04 54.99
5 47.76 66.81
6 65.06 35.57
7 8.68 98.27
8 16.12 90.86
9 7.79 39.79
10 62.30 61.71
11 74.78 81.72
12 59.95 22.52
13 50.33 75.89
14 3.48 6.86
15 64.73 54.70
16 93.69 58.42
17 10.15 84.54
18 88.89 21.77
19 44.65 50.28
EOF
